(set-info :smt-lib-version 2.6)
(set-logic UF)
(set-info :source |Benchmarks from the paper: "Extending Sledgehammer with SMT Solvers" by Jasmin Blanchette, Sascha Bohme, and Lawrence C. Paulson, CADE 2011.  Translated to SMT2 by Andrew Reynolds and Morgan Deters.|)
(set-info :category "industrial")
(set-info :status unknown)
(declare-sort S1 0)
(declare-sort S2 0)
(declare-sort S3 0)
(declare-sort S4 0)
(declare-fun f1 () S1)
(declare-fun f2 () S1)
(declare-fun f3 (S2 S2) S1)
(declare-fun f4 (S3 S2) S2)
(declare-fun f5 () S3)
(declare-fun f6 (S4 S2) S3)
(declare-fun f7 () S4)
(declare-fun f8 () S2)
(declare-fun f9 () S2)
(declare-fun f10 () S2)
(declare-fun f11 (S2 S2) S1)
(declare-fun f12 () S4)
(assert (not (= f1 f2)))
(assert (not (= (f3 (f4 f5 (f4 (f6 f7 f8) f9)) f10) f1)))
(assert (= (f11 f9 f8) f1))
(assert (= (f3 f8 (f4 (f6 f12 f9) f10)) f1))
(assert (forall ((?v0 S2) (?v1 S2) (?v2 S2)) (= (= (f3 (f4 f5 (f4 (f6 f7 ?v0) ?v1)) ?v2) f1) (and (= (f3 (f4 (f6 f7 ?v1) ?v2) ?v0) f1) (= (f3 ?v0 (f4 (f6 f12 ?v1) ?v2)) f1)))))
(assert (forall ((?v0 S2) (?v1 S2)) (= (f11 (f4 f5 (f4 (f6 f7 ?v0) ?v1)) (f4 (f6 f12 (f4 f5 ?v0)) (f4 f5 ?v1))) f1)))
(assert (forall ((?v0 S2) (?v1 S2) (?v2 S2) (?v3 S2)) (= (f11 (f4 f5 (f4 (f6 f7 (f4 (f6 f12 ?v0) ?v1)) (f4 (f6 f12 ?v2) ?v3))) (f4 (f6 f12 (f4 f5 (f4 (f6 f7 ?v0) ?v2))) (f4 f5 (f4 (f6 f7 ?v1) ?v3)))) f1)))
(assert (forall ((?v0 S2) (?v1 S2)) (= (f11 (f4 f5 (f4 (f6 f7 (f4 f5 ?v0)) (f4 f5 ?v1))) (f4 f5 (f4 (f6 f7 ?v0) ?v1))) f1)))
(assert (forall ((?v0 S2) (?v1 S2)) (= (f11 (f4 (f6 f7 (f4 f5 ?v0)) (f4 f5 ?v1)) (f4 f5 (f4 (f6 f7 ?v0) ?v1))) f1)))
(assert (forall ((?v0 S2) (?v1 S2)) (= (f11 (f4 (f6 f7 (f4 f5 ?v0)) (f4 f5 ?v1)) (f4 f5 (f4 (f6 f7 ?v1) ?v0))) f1)))
(assert (forall ((?v0 S2) (?v1 S2)) (= (f11 (f4 f5 (f4 (f6 f12 ?v0) ?v1)) (f4 (f6 f12 (f4 f5 ?v0)) (f4 f5 ?v1))) f1)))
(assert (forall ((?v0 S2) (?v1 S2) (?v2 S2) (?v3 S2)) (=> (= (f3 ?v0 ?v1) f1) (=> (= (f11 ?v2 ?v3) f1) (= (f3 (f4 (f6 f12 ?v0) ?v2) (f4 (f6 f12 ?v1) ?v3)) f1)))))
(assert (forall ((?v0 S2) (?v1 S2) (?v2 S2) (?v3 S2)) (=> (= (f11 ?v0 ?v1) f1) (=> (= (f3 ?v2 ?v3) f1) (= (f3 (f4 (f6 f12 ?v0) ?v2) (f4 (f6 f12 ?v1) ?v3)) f1)))))
(assert (forall ((?v0 S2)) (= (f11 ?v0 ?v0) f1)))
(assert (forall ((?v0 S2) (?v1 S2) (?v2 S2)) (let ((?v_0 (f6 f12 ?v2))) (=> (= (f11 ?v0 ?v1) f1) (= (f11 (f4 ?v_0 ?v0) (f4 ?v_0 ?v1)) f1)))))
(assert (forall ((?v0 S2) (?v1 S2)) (= (f4 f5 (f4 (f6 f7 ?v0) ?v1)) (f4 f5 (f4 (f6 f7 ?v1) ?v0)))))
(assert (forall ((?v0 S2) (?v1 S2)) (=> (=> (= (f11 ?v0 ?v1) f1) false) (=> (=> (= (f11 ?v1 ?v0) f1) false) false))))
(assert (forall ((?v0 S2) (?v1 S2) (?v2 S2)) (=> (= (f11 ?v0 ?v1) f1) (=> (= (f11 ?v2 ?v0) f1) (= (f11 ?v2 ?v1) f1)))))
(assert (forall ((?v0 S2) (?v1 S2)) (=> (= (f11 ?v0 ?v1) f1) (=> (= (f11 ?v1 ?v0) f1) (= ?v1 ?v0)))))
(assert (forall ((?v0 S2) (?v1 S2) (?v2 S2)) (=> (= (f11 ?v0 ?v1) f1) (=> (= (f11 ?v1 ?v2) f1) (= (f11 ?v0 ?v2) f1)))))
(assert (forall ((?v0 S2) (?v1 S2)) (=> (= (f11 ?v0 ?v1) f1) (=> (= (f11 ?v1 ?v0) f1) (= ?v0 ?v1)))))
(assert (forall ((?v0 S2) (?v1 S2) (?v2 S2)) (=> (= (f11 ?v0 ?v1) f1) (=> (= ?v0 ?v2) (= (f11 ?v2 ?v1) f1)))))
(assert (forall ((?v0 S2) (?v1 S2) (?v2 S2)) (=> (= (f11 ?v0 ?v1) f1) (=> (= ?v1 ?v2) (= (f11 ?v0 ?v2) f1)))))
(assert (forall ((?v0 S2) (?v1 S2) (?v2 S2)) (=> (= ?v0 ?v1) (=> (= (f11 ?v2 ?v1) f1) (= (f11 ?v2 ?v0) f1)))))
(assert (forall ((?v0 S2) (?v1 S2) (?v2 S2)) (=> (= ?v0 ?v1) (=> (= (f11 ?v1 ?v2) f1) (= (f11 ?v0 ?v2) f1)))))
(assert (forall ((?v0 S2) (?v1 S2)) (=> (= (f11 ?v0 ?v1) f1) (= (= (f11 ?v1 ?v0) f1) (= ?v1 ?v0)))))
(assert (forall ((?v0 S2) (?v1 S2)) (=> (= ?v0 ?v1) (= (f11 ?v0 ?v1) f1))))
(assert (forall ((?v0 S2) (?v1 S2)) (= (= ?v0 ?v1) (and (= (f11 ?v0 ?v1) f1) (= (f11 ?v1 ?v0) f1)))))
(assert (forall ((?v0 S2) (?v1 S2)) (or (= (f11 ?v0 ?v1) f1) (= (f11 ?v1 ?v0) f1))))
(assert (forall ((?v0 S2) (?v1 S2)) (=> (=> (= (f3 ?v0 ?v1) f1) false) (=> (=> (= ?v0 ?v1) false) (=> (=> (= (f3 ?v1 ?v0) f1) false) false)))))
(assert (forall ((?v0 S2) (?v1 S2)) (=> (= (f3 ?v0 ?v1) f1) (=> (=> (not false) (= (f3 ?v1 ?v0) f1)) false))))
(assert (forall ((?v0 S2) (?v1 S2) (?v2 S2)) (=> (= (f3 ?v0 ?v1) f1) (=> (= (f3 ?v2 ?v0) f1) (= (f3 ?v2 ?v1) f1)))))
(assert (forall ((?v0 S2) (?v1 S2) (?v2 S2)) (=> (= (f3 ?v0 ?v1) f1) (=> (= (f3 ?v1 ?v2) f1) (= (f3 ?v0 ?v2) f1)))))
(check-sat)
(exit)
